NAME: tsp5_20
COMMENT: 5-tsp problem (Padberg/Rinaldi)
TYPE: TSP
DIMENSION: 5
EDGE_WEIGHT_TYPE : EUC_2D
NODE_COORD_SECTION
1.00 1.40 38.07
2.00 35.74 35.33
3.00 15.14 32.37
4.00 20.59 18.58
5.00 27.98 1.75
